(set-info :smt-lib-version 2.6)
(set-logic UFLRA)
; Problem:
; 
;     lim(f_1 x) = l_1
;     ...
;     lim(f_n x) = l_n
;     =================
;     lim(k_1 f_{i_1}(x) + ... + k_m f_{i_m}(x)) = k1 l_{i_1} ... k_m  l_{i_m}
; 
; with n = 8
;      m = 128
;      k_i in Q
;      i_j in {1..n}

(declare-fun f0 (Real) Real)
(declare-fun f1 (Real) Real)
(declare-fun f2 (Real) Real)
(declare-fun f3 (Real) Real)
(declare-fun f4 (Real) Real)
(declare-fun f5 (Real) Real)
(declare-fun f6 (Real) Real)
(declare-fun f7 (Real) Real)
(declare-const l0 Real)
(declare-const l1 Real)
(declare-const l2 Real)
(declare-const l3 Real)
(declare-const l4 Real)
(declare-const l5 Real)
(declare-const l6 Real)
(declare-const l7 Real)
(declare-const a Real)
; Axiom 0
(assert ; lim[x -> a](f0 x) = l0
        ;
        ; forall epsilon > 0
        (forall ((epsilon Real)) (=> (< 0.0 epsilon)
          ;
          ; exists delta > 0
          (exists ( (delta Real) ) (and (< 0.0 delta)
            (forall ((x Real)) (=> ;
                                          ; a != x
                                     (and (not (= x a))
                                          ; | x - a | < delta
                                          (< (ite (>= (- x a) 0.0) (- x a) (- (- x a))) delta))
                                     ;
                                     ; | (f0 x) - l0 | < epsilon
                                     (< (ite (>= (- (f0 x) l0) 0.0) (- (f0 x) l0) (- (- (f0 x) l0))) epsilon)
            ))
          ))
        )))

; Axiom 1
(assert ; lim[x -> a](f1 x) = l1
        ;
        ; forall epsilon > 0
        (forall ((epsilon Real)) (=> (< 0.0 epsilon)
          ;
          ; exists delta > 0
          (exists ( (delta Real) ) (and (< 0.0 delta)
            (forall ((x Real)) (=> ;
                                          ; a != x
                                     (and (not (= x a))
                                          ; | x - a | < delta
                                          (< (ite (>= (- x a) 0.0) (- x a) (- (- x a))) delta))
                                     ;
                                     ; | (f1 x) - l1 | < epsilon
                                     (< (ite (>= (- (f1 x) l1) 0.0) (- (f1 x) l1) (- (- (f1 x) l1))) epsilon)
            ))
          ))
        )))

; Axiom 2
(assert ; lim[x -> a](f2 x) = l2
        ;
        ; forall epsilon > 0
        (forall ((epsilon Real)) (=> (< 0.0 epsilon)
          ;
          ; exists delta > 0
          (exists ( (delta Real) ) (and (< 0.0 delta)
            (forall ((x Real)) (=> ;
                                          ; a != x
                                     (and (not (= x a))
                                          ; | x - a | < delta
                                          (< (ite (>= (- x a) 0.0) (- x a) (- (- x a))) delta))
                                     ;
                                     ; | (f2 x) - l2 | < epsilon
                                     (< (ite (>= (- (f2 x) l2) 0.0) (- (f2 x) l2) (- (- (f2 x) l2))) epsilon)
            ))
          ))
        )))

; Axiom 3
(assert ; lim[x -> a](f3 x) = l3
        ;
        ; forall epsilon > 0
        (forall ((epsilon Real)) (=> (< 0.0 epsilon)
          ;
          ; exists delta > 0
          (exists ( (delta Real) ) (and (< 0.0 delta)
            (forall ((x Real)) (=> ;
                                          ; a != x
                                     (and (not (= x a))
                                          ; | x - a | < delta
                                          (< (ite (>= (- x a) 0.0) (- x a) (- (- x a))) delta))
                                     ;
                                     ; | (f3 x) - l3 | < epsilon
                                     (< (ite (>= (- (f3 x) l3) 0.0) (- (f3 x) l3) (- (- (f3 x) l3))) epsilon)
            ))
          ))
        )))

; Axiom 4
(assert ; lim[x -> a](f4 x) = l4
        ;
        ; forall epsilon > 0
        (forall ((epsilon Real)) (=> (< 0.0 epsilon)
          ;
          ; exists delta > 0
          (exists ( (delta Real) ) (and (< 0.0 delta)
            (forall ((x Real)) (=> ;
                                          ; a != x
                                     (and (not (= x a))
                                          ; | x - a | < delta
                                          (< (ite (>= (- x a) 0.0) (- x a) (- (- x a))) delta))
                                     ;
                                     ; | (f4 x) - l4 | < epsilon
                                     (< (ite (>= (- (f4 x) l4) 0.0) (- (f4 x) l4) (- (- (f4 x) l4))) epsilon)
            ))
          ))
        )))

; Axiom 5
(assert ; lim[x -> a](f5 x) = l5
        ;
        ; forall epsilon > 0
        (forall ((epsilon Real)) (=> (< 0.0 epsilon)
          ;
          ; exists delta > 0
          (exists ( (delta Real) ) (and (< 0.0 delta)
            (forall ((x Real)) (=> ;
                                          ; a != x
                                     (and (not (= x a))
                                          ; | x - a | < delta
                                          (< (ite (>= (- x a) 0.0) (- x a) (- (- x a))) delta))
                                     ;
                                     ; | (f5 x) - l5 | < epsilon
                                     (< (ite (>= (- (f5 x) l5) 0.0) (- (f5 x) l5) (- (- (f5 x) l5))) epsilon)
            ))
          ))
        )))

; Axiom 6
(assert ; lim[x -> a](f6 x) = l6
        ;
        ; forall epsilon > 0
        (forall ((epsilon Real)) (=> (< 0.0 epsilon)
          ;
          ; exists delta > 0
          (exists ( (delta Real) ) (and (< 0.0 delta)
            (forall ((x Real)) (=> ;
                                          ; a != x
                                     (and (not (= x a))
                                          ; | x - a | < delta
                                          (< (ite (>= (- x a) 0.0) (- x a) (- (- x a))) delta))
                                     ;
                                     ; | (f6 x) - l6 | < epsilon
                                     (< (ite (>= (- (f6 x) l6) 0.0) (- (f6 x) l6) (- (- (f6 x) l6))) epsilon)
            ))
          ))
        )))

; Axiom 7
(assert ; lim[x -> a](f7 x) = l7
        ;
        ; forall epsilon > 0
        (forall ((epsilon Real)) (=> (< 0.0 epsilon)
          ;
          ; exists delta > 0
          (exists ( (delta Real) ) (and (< 0.0 delta)
            (forall ((x Real)) (=> ;
                                          ; a != x
                                     (and (not (= x a))
                                          ; | x - a | < delta
                                          (< (ite (>= (- x a) 0.0) (- x a) (- (- x a))) delta))
                                     ;
                                     ; | (f7 x) - l7 | < epsilon
                                     (< (ite (>= (- (f7 x) l7) 0.0) (- (f7 x) l7) (- (- (f7 x) l7))) epsilon)
            ))
          ))
        )))


; Conclusion
(assert (not ; lim[x -> a](+ (* (/ 14.0 99.0) (f1 x)) (* (- (/ 48.0 36.0)) (f4 x)) (* (- (/ 11.0 95.0)) (f4 x)) (* (/ 70.0 76.0) (f7 x)) (* (/ 27.0 63.0) (f1 x)) (* (- (/ 75.0 83.0)) (f0 x)) (* (/ 81.0 17.0) (f5 x)) (* (- (/ 93.0 90.0)) (f4 x)) (* (/ 34.0 94.0) (f5 x)) (* (/ 26.0 49.0) (f7 x)) (* (/ 15.0 42.0) (f1 x)) (* (/ 31.0 20.0) (f5 x)) (* (- (/ 57.0 100.0)) (f6 x)) (* (/ 33.0 99.0) (f3 x)) (* (- (/ 56.0 47.0)) (f3 x)) (* (- (/ 59.0 10.0)) (f1 x)) (* (- (/ 39.0 12.0)) (f3 x)) (* (/ 68.0 38.0) (f7 x)) (* (/ 40.0 58.0) (f4 x)) (* (- (/ 13.0 56.0)) (f4 x)) (* (/ 79.0 93.0) (f3 x)) (* (- (/ 65.0 47.0)) (f2 x)) (* (- (/ 99.0 30.0)) (f7 x)) (* (/ 16.0 53.0) (f2 x)) (* (/ 28.0 71.0) (f2 x)) (* (/ 24.0 25.0) (f7 x)) (* (- (/ 86.0 49.0)) (f7 x)) (* (- (/ 29.0 95.0)) (f5 x)) (* (/ 30.0 64.0) (f6 x)) (* (/ 21.0 78.0) (f5 x)) (* (/ 58.0 18.0) (f0 x)) (* (/ 73.0 38.0) (f1 x)) (* (- (/ 16.0 47.0)) (f2 x)) (* (- (/ 72.0 29.0)) (f7 x)) (* (/ 38.0 75.0) (f2 x)) (* (/ 66.0 11.0) (f7 x)) (* (/ 42.0 51.0) (f5 x)) (* (/ 73.0 30.0) (f5 x)) (* (- (/ 27.0 31.0)) (f4 x)) (* (/ 88.0 62.0) (f6 x)) (* (/ 9.0 86.0) (f6 x)) (* (- (/ 47.0 30.0)) (f0 x)) (* (/ 55.0 46.0) (f6 x)) (* (/ 71.0 75.0) (f0 x)) (* (- (/ 48.0 88.0)) (f5 x)) (* (- (/ 83.0 97.0)) (f5 x)) (* (- (/ 10.0 56.0)) (f0 x)) (* (/ 96.0 52.0) (f4 x)) (* (/ 11.0 33.0) (f0 x)) (* (/ 64.0 87.0) (f4 x)) (* (- (/ 54.0 32.0)) (f0 x)) (* (- (/ 38.0 92.0)) (f0 x)) (* (/ 61.0 41.0) (f1 x)) (* (- (/ 21.0 83.0)) (f2 x)) (* (- (/ 100.0 89.0)) (f6 x)) (* (/ 83.0 75.0) (f2 x)) (* (- (/ 43.0 30.0)) (f7 x)) (* (- (/ 55.0 38.0)) (f6 x)) (* (- (/ 7.0 7.0)) (f6 x)) (* (- (/ 77.0 100.0)) (f1 x)) (* (- (/ 56.0 37.0)) (f1 x)) (* (/ 96.0 2.0) (f3 x)) (* (- (/ 80.0 100.0)) (f5 x)) (* (- (/ 17.0 88.0)) (f2 x)) (* (/ 68.0 58.0) (f6 x)) (* (- (/ 78.0 98.0)) (f7 x)) (* (- (/ 88.0 21.0)) (f4 x)) (* (/ 5.0 59.0) (f2 x)) (* (- (/ 30.0 68.0)) (f4 x)) (* (- (/ 15.0 9.0)) (f0 x)) (* (- (/ 12.0 42.0)) (f0 x)) (* (- (/ 32.0 97.0)) (f2 x)) (* (- (/ 91.0 46.0)) (f1 x)) (* (/ 11.0 33.0) (f2 x)) (* (- (/ 12.0 9.0)) (f0 x)) (* (- (/ 0.0 55.0)) (f6 x)) (* (- (/ 16.0 24.0)) (f0 x)) (* (/ 0.0 83.0) (f4 x)) (* (/ 51.0 50.0) (f4 x)) (* (/ 59.0 85.0) (f1 x)) (* (- (/ 15.0 47.0)) (f1 x)) (* (- (/ 93.0 51.0)) (f1 x)) (* (- (/ 85.0 24.0)) (f5 x)) (* (- (/ 85.0 99.0)) (f3 x)) (* (/ 91.0 85.0) (f0 x)) (* (- (/ 11.0 35.0)) (f2 x)) (* (/ 78.0 47.0) (f7 x)) (* (/ 75.0 7.0) (f4 x)) (* (/ 55.0 73.0) (f6 x)) (* (/ 0.0 11.0) (f2 x)) (* (/ 1.0 77.0) (f5 x)) (* (/ 4.0 45.0) (f1 x)) (* (- (/ 5.0 18.0)) (f0 x)) (* (- (/ 99.0 15.0)) (f2 x)) (* (/ 96.0 81.0) (f7 x)) (* (/ 99.0 68.0) (f0 x)) (* (- (/ 0.0 13.0)) (f0 x)) (* (- (/ 47.0 62.0)) (f3 x)) (* (- (/ 60.0 21.0)) (f0 x)) (* (/ 42.0 62.0) (f0 x)) (* (/ 71.0 79.0) (f3 x)) (* (- (/ 41.0 97.0)) (f5 x)) (* (/ 93.0 19.0) (f0 x)) (* (/ 15.0 70.0) (f7 x)) (* (- (/ 12.0 60.0)) (f2 x)) (* (- (/ 87.0 85.0)) (f7 x)) (* (- (/ 87.0 90.0)) (f6 x)) (* (/ 24.0 23.0) (f4 x)) (* (/ 0.0 88.0) (f7 x)) (* (- (/ 31.0 86.0)) (f1 x)) (* (- (/ 99.0 47.0)) (f1 x)) (* (/ 74.0 90.0) (f5 x)) (* (- (/ 48.0 83.0)) (f4 x)) (* (- (/ 71.0 70.0)) (f1 x)) (* (/ 79.0 59.0) (f7 x)) (* (/ 95.0 93.0) (f4 x)) (* (/ 4.0 18.0) (f5 x)) (* (/ 31.0 86.0) (f6 x)) (* (- (/ 97.0 82.0)) (f6 x)) (* (- (/ 75.0 50.0)) (f3 x)) (* (/ 58.0 72.0) (f6 x)) (* (- (/ 19.0 38.0)) (f0 x)) (* (/ 59.0 61.0) (f2 x)) (* (- (/ 98.0 28.0)) (f3 x)) (* (- (/ 26.0 67.0)) (f0 x)) (* (- (/ 75.0 75.0)) (f0 x)) (* (- (/ 7.0 84.0)) (f2 x)) (* (/ 8.0 23.0) (f1 x))) = (+ (* (/ 14.0 99.0) l1) (* (- (/ 48.0 36.0)) l4) (* (- (/ 11.0 95.0)) l4) (* (/ 70.0 76.0) l7) (* (/ 27.0 63.0) l1) (* (- (/ 75.0 83.0)) l0) (* (/ 81.0 17.0) l5) (* (- (/ 93.0 90.0)) l4) (* (/ 34.0 94.0) l5) (* (/ 26.0 49.0) l7) (* (/ 15.0 42.0) l1) (* (/ 31.0 20.0) l5) (* (- (/ 57.0 100.0)) l6) (* (/ 33.0 99.0) l3) (* (- (/ 56.0 47.0)) l3) (* (- (/ 59.0 10.0)) l1) (* (- (/ 39.0 12.0)) l3) (* (/ 68.0 38.0) l7) (* (/ 40.0 58.0) l4) (* (- (/ 13.0 56.0)) l4) (* (/ 79.0 93.0) l3) (* (- (/ 65.0 47.0)) l2) (* (- (/ 99.0 30.0)) l7) (* (/ 16.0 53.0) l2) (* (/ 28.0 71.0) l2) (* (/ 24.0 25.0) l7) (* (- (/ 86.0 49.0)) l7) (* (- (/ 29.0 95.0)) l5) (* (/ 30.0 64.0) l6) (* (/ 21.0 78.0) l5) (* (/ 58.0 18.0) l0) (* (/ 73.0 38.0) l1) (* (- (/ 16.0 47.0)) l2) (* (- (/ 72.0 29.0)) l7) (* (/ 38.0 75.0) l2) (* (/ 66.0 11.0) l7) (* (/ 42.0 51.0) l5) (* (/ 73.0 30.0) l5) (* (- (/ 27.0 31.0)) l4) (* (/ 88.0 62.0) l6) (* (/ 9.0 86.0) l6) (* (- (/ 47.0 30.0)) l0) (* (/ 55.0 46.0) l6) (* (/ 71.0 75.0) l0) (* (- (/ 48.0 88.0)) l5) (* (- (/ 83.0 97.0)) l5) (* (- (/ 10.0 56.0)) l0) (* (/ 96.0 52.0) l4) (* (/ 11.0 33.0) l0) (* (/ 64.0 87.0) l4) (* (- (/ 54.0 32.0)) l0) (* (- (/ 38.0 92.0)) l0) (* (/ 61.0 41.0) l1) (* (- (/ 21.0 83.0)) l2) (* (- (/ 100.0 89.0)) l6) (* (/ 83.0 75.0) l2) (* (- (/ 43.0 30.0)) l7) (* (- (/ 55.0 38.0)) l6) (* (- (/ 7.0 7.0)) l6) (* (- (/ 77.0 100.0)) l1) (* (- (/ 56.0 37.0)) l1) (* (/ 96.0 2.0) l3) (* (- (/ 80.0 100.0)) l5) (* (- (/ 17.0 88.0)) l2) (* (/ 68.0 58.0) l6) (* (- (/ 78.0 98.0)) l7) (* (- (/ 88.0 21.0)) l4) (* (/ 5.0 59.0) l2) (* (- (/ 30.0 68.0)) l4) (* (- (/ 15.0 9.0)) l0) (* (- (/ 12.0 42.0)) l0) (* (- (/ 32.0 97.0)) l2) (* (- (/ 91.0 46.0)) l1) (* (/ 11.0 33.0) l2) (* (- (/ 12.0 9.0)) l0) (* (- (/ 0.0 55.0)) l6) (* (- (/ 16.0 24.0)) l0) (* (/ 0.0 83.0) l4) (* (/ 51.0 50.0) l4) (* (/ 59.0 85.0) l1) (* (- (/ 15.0 47.0)) l1) (* (- (/ 93.0 51.0)) l1) (* (- (/ 85.0 24.0)) l5) (* (- (/ 85.0 99.0)) l3) (* (/ 91.0 85.0) l0) (* (- (/ 11.0 35.0)) l2) (* (/ 78.0 47.0) l7) (* (/ 75.0 7.0) l4) (* (/ 55.0 73.0) l6) (* (/ 0.0 11.0) l2) (* (/ 1.0 77.0) l5) (* (/ 4.0 45.0) l1) (* (- (/ 5.0 18.0)) l0) (* (- (/ 99.0 15.0)) l2) (* (/ 96.0 81.0) l7) (* (/ 99.0 68.0) l0) (* (- (/ 0.0 13.0)) l0) (* (- (/ 47.0 62.0)) l3) (* (- (/ 60.0 21.0)) l0) (* (/ 42.0 62.0) l0) (* (/ 71.0 79.0) l3) (* (- (/ 41.0 97.0)) l5) (* (/ 93.0 19.0) l0) (* (/ 15.0 70.0) l7) (* (- (/ 12.0 60.0)) l2) (* (- (/ 87.0 85.0)) l7) (* (- (/ 87.0 90.0)) l6) (* (/ 24.0 23.0) l4) (* (/ 0.0 88.0) l7) (* (- (/ 31.0 86.0)) l1) (* (- (/ 99.0 47.0)) l1) (* (/ 74.0 90.0) l5) (* (- (/ 48.0 83.0)) l4) (* (- (/ 71.0 70.0)) l1) (* (/ 79.0 59.0) l7) (* (/ 95.0 93.0) l4) (* (/ 4.0 18.0) l5) (* (/ 31.0 86.0) l6) (* (- (/ 97.0 82.0)) l6) (* (- (/ 75.0 50.0)) l3) (* (/ 58.0 72.0) l6) (* (- (/ 19.0 38.0)) l0) (* (/ 59.0 61.0) l2) (* (- (/ 98.0 28.0)) l3) (* (- (/ 26.0 67.0)) l0) (* (- (/ 75.0 75.0)) l0) (* (- (/ 7.0 84.0)) l2) (* (/ 8.0 23.0) l1))
             ;
             ; forall epsilon > 0
             (forall ((epsilon Real)) (=> (< 0.0 epsilon)
               ;
               ; exists delta > 0
               (exists ( (delta Real) ) (and (< 0.0 delta)
                 (forall ((x Real)) (=> ;
                                               ; a != x
                                          (and (not (= x a))
                                               ; | x - a | < delta
                                               (< (ite (>= (- x a) 0.0) (- x a) (- (- x a))) delta))
                                          ;
                                          ; | (+ (* (/ 14.0 99.0) (f1 x)) (* (- (/ 48.0 36.0)) (f4 x)) (* (- (/ 11.0 95.0)) (f4 x)) (* (/ 70.0 76.0) (f7 x)) (* (/ 27.0 63.0) (f1 x)) (* (- (/ 75.0 83.0)) (f0 x)) (* (/ 81.0 17.0) (f5 x)) (* (- (/ 93.0 90.0)) (f4 x)) (* (/ 34.0 94.0) (f5 x)) (* (/ 26.0 49.0) (f7 x)) (* (/ 15.0 42.0) (f1 x)) (* (/ 31.0 20.0) (f5 x)) (* (- (/ 57.0 100.0)) (f6 x)) (* (/ 33.0 99.0) (f3 x)) (* (- (/ 56.0 47.0)) (f3 x)) (* (- (/ 59.0 10.0)) (f1 x)) (* (- (/ 39.0 12.0)) (f3 x)) (* (/ 68.0 38.0) (f7 x)) (* (/ 40.0 58.0) (f4 x)) (* (- (/ 13.0 56.0)) (f4 x)) (* (/ 79.0 93.0) (f3 x)) (* (- (/ 65.0 47.0)) (f2 x)) (* (- (/ 99.0 30.0)) (f7 x)) (* (/ 16.0 53.0) (f2 x)) (* (/ 28.0 71.0) (f2 x)) (* (/ 24.0 25.0) (f7 x)) (* (- (/ 86.0 49.0)) (f7 x)) (* (- (/ 29.0 95.0)) (f5 x)) (* (/ 30.0 64.0) (f6 x)) (* (/ 21.0 78.0) (f5 x)) (* (/ 58.0 18.0) (f0 x)) (* (/ 73.0 38.0) (f1 x)) (* (- (/ 16.0 47.0)) (f2 x)) (* (- (/ 72.0 29.0)) (f7 x)) (* (/ 38.0 75.0) (f2 x)) (* (/ 66.0 11.0) (f7 x)) (* (/ 42.0 51.0) (f5 x)) (* (/ 73.0 30.0) (f5 x)) (* (- (/ 27.0 31.0)) (f4 x)) (* (/ 88.0 62.0) (f6 x)) (* (/ 9.0 86.0) (f6 x)) (* (- (/ 47.0 30.0)) (f0 x)) (* (/ 55.0 46.0) (f6 x)) (* (/ 71.0 75.0) (f0 x)) (* (- (/ 48.0 88.0)) (f5 x)) (* (- (/ 83.0 97.0)) (f5 x)) (* (- (/ 10.0 56.0)) (f0 x)) (* (/ 96.0 52.0) (f4 x)) (* (/ 11.0 33.0) (f0 x)) (* (/ 64.0 87.0) (f4 x)) (* (- (/ 54.0 32.0)) (f0 x)) (* (- (/ 38.0 92.0)) (f0 x)) (* (/ 61.0 41.0) (f1 x)) (* (- (/ 21.0 83.0)) (f2 x)) (* (- (/ 100.0 89.0)) (f6 x)) (* (/ 83.0 75.0) (f2 x)) (* (- (/ 43.0 30.0)) (f7 x)) (* (- (/ 55.0 38.0)) (f6 x)) (* (- (/ 7.0 7.0)) (f6 x)) (* (- (/ 77.0 100.0)) (f1 x)) (* (- (/ 56.0 37.0)) (f1 x)) (* (/ 96.0 2.0) (f3 x)) (* (- (/ 80.0 100.0)) (f5 x)) (* (- (/ 17.0 88.0)) (f2 x)) (* (/ 68.0 58.0) (f6 x)) (* (- (/ 78.0 98.0)) (f7 x)) (* (- (/ 88.0 21.0)) (f4 x)) (* (/ 5.0 59.0) (f2 x)) (* (- (/ 30.0 68.0)) (f4 x)) (* (- (/ 15.0 9.0)) (f0 x)) (* (- (/ 12.0 42.0)) (f0 x)) (* (- (/ 32.0 97.0)) (f2 x)) (* (- (/ 91.0 46.0)) (f1 x)) (* (/ 11.0 33.0) (f2 x)) (* (- (/ 12.0 9.0)) (f0 x)) (* (- (/ 0.0 55.0)) (f6 x)) (* (- (/ 16.0 24.0)) (f0 x)) (* (/ 0.0 83.0) (f4 x)) (* (/ 51.0 50.0) (f4 x)) (* (/ 59.0 85.0) (f1 x)) (* (- (/ 15.0 47.0)) (f1 x)) (* (- (/ 93.0 51.0)) (f1 x)) (* (- (/ 85.0 24.0)) (f5 x)) (* (- (/ 85.0 99.0)) (f3 x)) (* (/ 91.0 85.0) (f0 x)) (* (- (/ 11.0 35.0)) (f2 x)) (* (/ 78.0 47.0) (f7 x)) (* (/ 75.0 7.0) (f4 x)) (* (/ 55.0 73.0) (f6 x)) (* (/ 0.0 11.0) (f2 x)) (* (/ 1.0 77.0) (f5 x)) (* (/ 4.0 45.0) (f1 x)) (* (- (/ 5.0 18.0)) (f0 x)) (* (- (/ 99.0 15.0)) (f2 x)) (* (/ 96.0 81.0) (f7 x)) (* (/ 99.0 68.0) (f0 x)) (* (- (/ 0.0 13.0)) (f0 x)) (* (- (/ 47.0 62.0)) (f3 x)) (* (- (/ 60.0 21.0)) (f0 x)) (* (/ 42.0 62.0) (f0 x)) (* (/ 71.0 79.0) (f3 x)) (* (- (/ 41.0 97.0)) (f5 x)) (* (/ 93.0 19.0) (f0 x)) (* (/ 15.0 70.0) (f7 x)) (* (- (/ 12.0 60.0)) (f2 x)) (* (- (/ 87.0 85.0)) (f7 x)) (* (- (/ 87.0 90.0)) (f6 x)) (* (/ 24.0 23.0) (f4 x)) (* (/ 0.0 88.0) (f7 x)) (* (- (/ 31.0 86.0)) (f1 x)) (* (- (/ 99.0 47.0)) (f1 x)) (* (/ 74.0 90.0) (f5 x)) (* (- (/ 48.0 83.0)) (f4 x)) (* (- (/ 71.0 70.0)) (f1 x)) (* (/ 79.0 59.0) (f7 x)) (* (/ 95.0 93.0) (f4 x)) (* (/ 4.0 18.0) (f5 x)) (* (/ 31.0 86.0) (f6 x)) (* (- (/ 97.0 82.0)) (f6 x)) (* (- (/ 75.0 50.0)) (f3 x)) (* (/ 58.0 72.0) (f6 x)) (* (- (/ 19.0 38.0)) (f0 x)) (* (/ 59.0 61.0) (f2 x)) (* (- (/ 98.0 28.0)) (f3 x)) (* (- (/ 26.0 67.0)) (f0 x)) (* (- (/ 75.0 75.0)) (f0 x)) (* (- (/ 7.0 84.0)) (f2 x)) (* (/ 8.0 23.0) (f1 x))) - (+ (* (/ 14.0 99.0) l1) (* (- (/ 48.0 36.0)) l4) (* (- (/ 11.0 95.0)) l4) (* (/ 70.0 76.0) l7) (* (/ 27.0 63.0) l1) (* (- (/ 75.0 83.0)) l0) (* (/ 81.0 17.0) l5) (* (- (/ 93.0 90.0)) l4) (* (/ 34.0 94.0) l5) (* (/ 26.0 49.0) l7) (* (/ 15.0 42.0) l1) (* (/ 31.0 20.0) l5) (* (- (/ 57.0 100.0)) l6) (* (/ 33.0 99.0) l3) (* (- (/ 56.0 47.0)) l3) (* (- (/ 59.0 10.0)) l1) (* (- (/ 39.0 12.0)) l3) (* (/ 68.0 38.0) l7) (* (/ 40.0 58.0) l4) (* (- (/ 13.0 56.0)) l4) (* (/ 79.0 93.0) l3) (* (- (/ 65.0 47.0)) l2) (* (- (/ 99.0 30.0)) l7) (* (/ 16.0 53.0) l2) (* (/ 28.0 71.0) l2) (* (/ 24.0 25.0) l7) (* (- (/ 86.0 49.0)) l7) (* (- (/ 29.0 95.0)) l5) (* (/ 30.0 64.0) l6) (* (/ 21.0 78.0) l5) (* (/ 58.0 18.0) l0) (* (/ 73.0 38.0) l1) (* (- (/ 16.0 47.0)) l2) (* (- (/ 72.0 29.0)) l7) (* (/ 38.0 75.0) l2) (* (/ 66.0 11.0) l7) (* (/ 42.0 51.0) l5) (* (/ 73.0 30.0) l5) (* (- (/ 27.0 31.0)) l4) (* (/ 88.0 62.0) l6) (* (/ 9.0 86.0) l6) (* (- (/ 47.0 30.0)) l0) (* (/ 55.0 46.0) l6) (* (/ 71.0 75.0) l0) (* (- (/ 48.0 88.0)) l5) (* (- (/ 83.0 97.0)) l5) (* (- (/ 10.0 56.0)) l0) (* (/ 96.0 52.0) l4) (* (/ 11.0 33.0) l0) (* (/ 64.0 87.0) l4) (* (- (/ 54.0 32.0)) l0) (* (- (/ 38.0 92.0)) l0) (* (/ 61.0 41.0) l1) (* (- (/ 21.0 83.0)) l2) (* (- (/ 100.0 89.0)) l6) (* (/ 83.0 75.0) l2) (* (- (/ 43.0 30.0)) l7) (* (- (/ 55.0 38.0)) l6) (* (- (/ 7.0 7.0)) l6) (* (- (/ 77.0 100.0)) l1) (* (- (/ 56.0 37.0)) l1) (* (/ 96.0 2.0) l3) (* (- (/ 80.0 100.0)) l5) (* (- (/ 17.0 88.0)) l2) (* (/ 68.0 58.0) l6) (* (- (/ 78.0 98.0)) l7) (* (- (/ 88.0 21.0)) l4) (* (/ 5.0 59.0) l2) (* (- (/ 30.0 68.0)) l4) (* (- (/ 15.0 9.0)) l0) (* (- (/ 12.0 42.0)) l0) (* (- (/ 32.0 97.0)) l2) (* (- (/ 91.0 46.0)) l1) (* (/ 11.0 33.0) l2) (* (- (/ 12.0 9.0)) l0) (* (- (/ 0.0 55.0)) l6) (* (- (/ 16.0 24.0)) l0) (* (/ 0.0 83.0) l4) (* (/ 51.0 50.0) l4) (* (/ 59.0 85.0) l1) (* (- (/ 15.0 47.0)) l1) (* (- (/ 93.0 51.0)) l1) (* (- (/ 85.0 24.0)) l5) (* (- (/ 85.0 99.0)) l3) (* (/ 91.0 85.0) l0) (* (- (/ 11.0 35.0)) l2) (* (/ 78.0 47.0) l7) (* (/ 75.0 7.0) l4) (* (/ 55.0 73.0) l6) (* (/ 0.0 11.0) l2) (* (/ 1.0 77.0) l5) (* (/ 4.0 45.0) l1) (* (- (/ 5.0 18.0)) l0) (* (- (/ 99.0 15.0)) l2) (* (/ 96.0 81.0) l7) (* (/ 99.0 68.0) l0) (* (- (/ 0.0 13.0)) l0) (* (- (/ 47.0 62.0)) l3) (* (- (/ 60.0 21.0)) l0) (* (/ 42.0 62.0) l0) (* (/ 71.0 79.0) l3) (* (- (/ 41.0 97.0)) l5) (* (/ 93.0 19.0) l0) (* (/ 15.0 70.0) l7) (* (- (/ 12.0 60.0)) l2) (* (- (/ 87.0 85.0)) l7) (* (- (/ 87.0 90.0)) l6) (* (/ 24.0 23.0) l4) (* (/ 0.0 88.0) l7) (* (- (/ 31.0 86.0)) l1) (* (- (/ 99.0 47.0)) l1) (* (/ 74.0 90.0) l5) (* (- (/ 48.0 83.0)) l4) (* (- (/ 71.0 70.0)) l1) (* (/ 79.0 59.0) l7) (* (/ 95.0 93.0) l4) (* (/ 4.0 18.0) l5) (* (/ 31.0 86.0) l6) (* (- (/ 97.0 82.0)) l6) (* (- (/ 75.0 50.0)) l3) (* (/ 58.0 72.0) l6) (* (- (/ 19.0 38.0)) l0) (* (/ 59.0 61.0) l2) (* (- (/ 98.0 28.0)) l3) (* (- (/ 26.0 67.0)) l0) (* (- (/ 75.0 75.0)) l0) (* (- (/ 7.0 84.0)) l2) (* (/ 8.0 23.0) l1)) | < epsilon
                                          (< (ite (>= (- (+ (* (/ 14.0 99.0) (f1 x)) (* (- (/ 48.0 36.0)) (f4 x)) (* (- (/ 11.0 95.0)) (f4 x)) (* (/ 70.0 76.0) (f7 x)) (* (/ 27.0 63.0) (f1 x)) (* (- (/ 75.0 83.0)) (f0 x)) (* (/ 81.0 17.0) (f5 x)) (* (- (/ 93.0 90.0)) (f4 x)) (* (/ 34.0 94.0) (f5 x)) (* (/ 26.0 49.0) (f7 x)) (* (/ 15.0 42.0) (f1 x)) (* (/ 31.0 20.0) (f5 x)) (* (- (/ 57.0 100.0)) (f6 x)) (* (/ 33.0 99.0) (f3 x)) (* (- (/ 56.0 47.0)) (f3 x)) (* (- (/ 59.0 10.0)) (f1 x)) (* (- (/ 39.0 12.0)) (f3 x)) (* (/ 68.0 38.0) (f7 x)) (* (/ 40.0 58.0) (f4 x)) (* (- (/ 13.0 56.0)) (f4 x)) (* (/ 79.0 93.0) (f3 x)) (* (- (/ 65.0 47.0)) (f2 x)) (* (- (/ 99.0 30.0)) (f7 x)) (* (/ 16.0 53.0) (f2 x)) (* (/ 28.0 71.0) (f2 x)) (* (/ 24.0 25.0) (f7 x)) (* (- (/ 86.0 49.0)) (f7 x)) (* (- (/ 29.0 95.0)) (f5 x)) (* (/ 30.0 64.0) (f6 x)) (* (/ 21.0 78.0) (f5 x)) (* (/ 58.0 18.0) (f0 x)) (* (/ 73.0 38.0) (f1 x)) (* (- (/ 16.0 47.0)) (f2 x)) (* (- (/ 72.0 29.0)) (f7 x)) (* (/ 38.0 75.0) (f2 x)) (* (/ 66.0 11.0) (f7 x)) (* (/ 42.0 51.0) (f5 x)) (* (/ 73.0 30.0) (f5 x)) (* (- (/ 27.0 31.0)) (f4 x)) (* (/ 88.0 62.0) (f6 x)) (* (/ 9.0 86.0) (f6 x)) (* (- (/ 47.0 30.0)) (f0 x)) (* (/ 55.0 46.0) (f6 x)) (* (/ 71.0 75.0) (f0 x)) (* (- (/ 48.0 88.0)) (f5 x)) (* (- (/ 83.0 97.0)) (f5 x)) (* (- (/ 10.0 56.0)) (f0 x)) (* (/ 96.0 52.0) (f4 x)) (* (/ 11.0 33.0) (f0 x)) (* (/ 64.0 87.0) (f4 x)) (* (- (/ 54.0 32.0)) (f0 x)) (* (- (/ 38.0 92.0)) (f0 x)) (* (/ 61.0 41.0) (f1 x)) (* (- (/ 21.0 83.0)) (f2 x)) (* (- (/ 100.0 89.0)) (f6 x)) (* (/ 83.0 75.0) (f2 x)) (* (- (/ 43.0 30.0)) (f7 x)) (* (- (/ 55.0 38.0)) (f6 x)) (* (- (/ 7.0 7.0)) (f6 x)) (* (- (/ 77.0 100.0)) (f1 x)) (* (- (/ 56.0 37.0)) (f1 x)) (* (/ 96.0 2.0) (f3 x)) (* (- (/ 80.0 100.0)) (f5 x)) (* (- (/ 17.0 88.0)) (f2 x)) (* (/ 68.0 58.0) (f6 x)) (* (- (/ 78.0 98.0)) (f7 x)) (* (- (/ 88.0 21.0)) (f4 x)) (* (/ 5.0 59.0) (f2 x)) (* (- (/ 30.0 68.0)) (f4 x)) (* (- (/ 15.0 9.0)) (f0 x)) (* (- (/ 12.0 42.0)) (f0 x)) (* (- (/ 32.0 97.0)) (f2 x)) (* (- (/ 91.0 46.0)) (f1 x)) (* (/ 11.0 33.0) (f2 x)) (* (- (/ 12.0 9.0)) (f0 x)) (* (- (/ 0.0 55.0)) (f6 x)) (* (- (/ 16.0 24.0)) (f0 x)) (* (/ 0.0 83.0) (f4 x)) (* (/ 51.0 50.0) (f4 x)) (* (/ 59.0 85.0) (f1 x)) (* (- (/ 15.0 47.0)) (f1 x)) (* (- (/ 93.0 51.0)) (f1 x)) (* (- (/ 85.0 24.0)) (f5 x)) (* (- (/ 85.0 99.0)) (f3 x)) (* (/ 91.0 85.0) (f0 x)) (* (- (/ 11.0 35.0)) (f2 x)) (* (/ 78.0 47.0) (f7 x)) (* (/ 75.0 7.0) (f4 x)) (* (/ 55.0 73.0) (f6 x)) (* (/ 0.0 11.0) (f2 x)) (* (/ 1.0 77.0) (f5 x)) (* (/ 4.0 45.0) (f1 x)) (* (- (/ 5.0 18.0)) (f0 x)) (* (- (/ 99.0 15.0)) (f2 x)) (* (/ 96.0 81.0) (f7 x)) (* (/ 99.0 68.0) (f0 x)) (* (- (/ 0.0 13.0)) (f0 x)) (* (- (/ 47.0 62.0)) (f3 x)) (* (- (/ 60.0 21.0)) (f0 x)) (* (/ 42.0 62.0) (f0 x)) (* (/ 71.0 79.0) (f3 x)) (* (- (/ 41.0 97.0)) (f5 x)) (* (/ 93.0 19.0) (f0 x)) (* (/ 15.0 70.0) (f7 x)) (* (- (/ 12.0 60.0)) (f2 x)) (* (- (/ 87.0 85.0)) (f7 x)) (* (- (/ 87.0 90.0)) (f6 x)) (* (/ 24.0 23.0) (f4 x)) (* (/ 0.0 88.0) (f7 x)) (* (- (/ 31.0 86.0)) (f1 x)) (* (- (/ 99.0 47.0)) (f1 x)) (* (/ 74.0 90.0) (f5 x)) (* (- (/ 48.0 83.0)) (f4 x)) (* (- (/ 71.0 70.0)) (f1 x)) (* (/ 79.0 59.0) (f7 x)) (* (/ 95.0 93.0) (f4 x)) (* (/ 4.0 18.0) (f5 x)) (* (/ 31.0 86.0) (f6 x)) (* (- (/ 97.0 82.0)) (f6 x)) (* (- (/ 75.0 50.0)) (f3 x)) (* (/ 58.0 72.0) (f6 x)) (* (- (/ 19.0 38.0)) (f0 x)) (* (/ 59.0 61.0) (f2 x)) (* (- (/ 98.0 28.0)) (f3 x)) (* (- (/ 26.0 67.0)) (f0 x)) (* (- (/ 75.0 75.0)) (f0 x)) (* (- (/ 7.0 84.0)) (f2 x)) (* (/ 8.0 23.0) (f1 x))) (+ (* (/ 14.0 99.0) l1) (* (- (/ 48.0 36.0)) l4) (* (- (/ 11.0 95.0)) l4) (* (/ 70.0 76.0) l7) (* (/ 27.0 63.0) l1) (* (- (/ 75.0 83.0)) l0) (* (/ 81.0 17.0) l5) (* (- (/ 93.0 90.0)) l4) (* (/ 34.0 94.0) l5) (* (/ 26.0 49.0) l7) (* (/ 15.0 42.0) l1) (* (/ 31.0 20.0) l5) (* (- (/ 57.0 100.0)) l6) (* (/ 33.0 99.0) l3) (* (- (/ 56.0 47.0)) l3) (* (- (/ 59.0 10.0)) l1) (* (- (/ 39.0 12.0)) l3) (* (/ 68.0 38.0) l7) (* (/ 40.0 58.0) l4) (* (- (/ 13.0 56.0)) l4) (* (/ 79.0 93.0) l3) (* (- (/ 65.0 47.0)) l2) (* (- (/ 99.0 30.0)) l7) (* (/ 16.0 53.0) l2) (* (/ 28.0 71.0) l2) (* (/ 24.0 25.0) l7) (* (- (/ 86.0 49.0)) l7) (* (- (/ 29.0 95.0)) l5) (* (/ 30.0 64.0) l6) (* (/ 21.0 78.0) l5) (* (/ 58.0 18.0) l0) (* (/ 73.0 38.0) l1) (* (- (/ 16.0 47.0)) l2) (* (- (/ 72.0 29.0)) l7) (* (/ 38.0 75.0) l2) (* (/ 66.0 11.0) l7) (* (/ 42.0 51.0) l5) (* (/ 73.0 30.0) l5) (* (- (/ 27.0 31.0)) l4) (* (/ 88.0 62.0) l6) (* (/ 9.0 86.0) l6) (* (- (/ 47.0 30.0)) l0) (* (/ 55.0 46.0) l6) (* (/ 71.0 75.0) l0) (* (- (/ 48.0 88.0)) l5) (* (- (/ 83.0 97.0)) l5) (* (- (/ 10.0 56.0)) l0) (* (/ 96.0 52.0) l4) (* (/ 11.0 33.0) l0) (* (/ 64.0 87.0) l4) (* (- (/ 54.0 32.0)) l0) (* (- (/ 38.0 92.0)) l0) (* (/ 61.0 41.0) l1) (* (- (/ 21.0 83.0)) l2) (* (- (/ 100.0 89.0)) l6) (* (/ 83.0 75.0) l2) (* (- (/ 43.0 30.0)) l7) (* (- (/ 55.0 38.0)) l6) (* (- (/ 7.0 7.0)) l6) (* (- (/ 77.0 100.0)) l1) (* (- (/ 56.0 37.0)) l1) (* (/ 96.0 2.0) l3) (* (- (/ 80.0 100.0)) l5) (* (- (/ 17.0 88.0)) l2) (* (/ 68.0 58.0) l6) (* (- (/ 78.0 98.0)) l7) (* (- (/ 88.0 21.0)) l4) (* (/ 5.0 59.0) l2) (* (- (/ 30.0 68.0)) l4) (* (- (/ 15.0 9.0)) l0) (* (- (/ 12.0 42.0)) l0) (* (- (/ 32.0 97.0)) l2) (* (- (/ 91.0 46.0)) l1) (* (/ 11.0 33.0) l2) (* (- (/ 12.0 9.0)) l0) (* (- (/ 0.0 55.0)) l6) (* (- (/ 16.0 24.0)) l0) (* (/ 0.0 83.0) l4) (* (/ 51.0 50.0) l4) (* (/ 59.0 85.0) l1) (* (- (/ 15.0 47.0)) l1) (* (- (/ 93.0 51.0)) l1) (* (- (/ 85.0 24.0)) l5) (* (- (/ 85.0 99.0)) l3) (* (/ 91.0 85.0) l0) (* (- (/ 11.0 35.0)) l2) (* (/ 78.0 47.0) l7) (* (/ 75.0 7.0) l4) (* (/ 55.0 73.0) l6) (* (/ 0.0 11.0) l2) (* (/ 1.0 77.0) l5) (* (/ 4.0 45.0) l1) (* (- (/ 5.0 18.0)) l0) (* (- (/ 99.0 15.0)) l2) (* (/ 96.0 81.0) l7) (* (/ 99.0 68.0) l0) (* (- (/ 0.0 13.0)) l0) (* (- (/ 47.0 62.0)) l3) (* (- (/ 60.0 21.0)) l0) (* (/ 42.0 62.0) l0) (* (/ 71.0 79.0) l3) (* (- (/ 41.0 97.0)) l5) (* (/ 93.0 19.0) l0) (* (/ 15.0 70.0) l7) (* (- (/ 12.0 60.0)) l2) (* (- (/ 87.0 85.0)) l7) (* (- (/ 87.0 90.0)) l6) (* (/ 24.0 23.0) l4) (* (/ 0.0 88.0) l7) (* (- (/ 31.0 86.0)) l1) (* (- (/ 99.0 47.0)) l1) (* (/ 74.0 90.0) l5) (* (- (/ 48.0 83.0)) l4) (* (- (/ 71.0 70.0)) l1) (* (/ 79.0 59.0) l7) (* (/ 95.0 93.0) l4) (* (/ 4.0 18.0) l5) (* (/ 31.0 86.0) l6) (* (- (/ 97.0 82.0)) l6) (* (- (/ 75.0 50.0)) l3) (* (/ 58.0 72.0) l6) (* (- (/ 19.0 38.0)) l0) (* (/ 59.0 61.0) l2) (* (- (/ 98.0 28.0)) l3) (* (- (/ 26.0 67.0)) l0) (* (- (/ 75.0 75.0)) l0) (* (- (/ 7.0 84.0)) l2) (* (/ 8.0 23.0) l1))) 0.0) (- (+ (* (/ 14.0 99.0) (f1 x)) (* (- (/ 48.0 36.0)) (f4 x)) (* (- (/ 11.0 95.0)) (f4 x)) (* (/ 70.0 76.0) (f7 x)) (* (/ 27.0 63.0) (f1 x)) (* (- (/ 75.0 83.0)) (f0 x)) (* (/ 81.0 17.0) (f5 x)) (* (- (/ 93.0 90.0)) (f4 x)) (* (/ 34.0 94.0) (f5 x)) (* (/ 26.0 49.0) (f7 x)) (* (/ 15.0 42.0) (f1 x)) (* (/ 31.0 20.0) (f5 x)) (* (- (/ 57.0 100.0)) (f6 x)) (* (/ 33.0 99.0) (f3 x)) (* (- (/ 56.0 47.0)) (f3 x)) (* (- (/ 59.0 10.0)) (f1 x)) (* (- (/ 39.0 12.0)) (f3 x)) (* (/ 68.0 38.0) (f7 x)) (* (/ 40.0 58.0) (f4 x)) (* (- (/ 13.0 56.0)) (f4 x)) (* (/ 79.0 93.0) (f3 x)) (* (- (/ 65.0 47.0)) (f2 x)) (* (- (/ 99.0 30.0)) (f7 x)) (* (/ 16.0 53.0) (f2 x)) (* (/ 28.0 71.0) (f2 x)) (* (/ 24.0 25.0) (f7 x)) (* (- (/ 86.0 49.0)) (f7 x)) (* (- (/ 29.0 95.0)) (f5 x)) (* (/ 30.0 64.0) (f6 x)) (* (/ 21.0 78.0) (f5 x)) (* (/ 58.0 18.0) (f0 x)) (* (/ 73.0 38.0) (f1 x)) (* (- (/ 16.0 47.0)) (f2 x)) (* (- (/ 72.0 29.0)) (f7 x)) (* (/ 38.0 75.0) (f2 x)) (* (/ 66.0 11.0) (f7 x)) (* (/ 42.0 51.0) (f5 x)) (* (/ 73.0 30.0) (f5 x)) (* (- (/ 27.0 31.0)) (f4 x)) (* (/ 88.0 62.0) (f6 x)) (* (/ 9.0 86.0) (f6 x)) (* (- (/ 47.0 30.0)) (f0 x)) (* (/ 55.0 46.0) (f6 x)) (* (/ 71.0 75.0) (f0 x)) (* (- (/ 48.0 88.0)) (f5 x)) (* (- (/ 83.0 97.0)) (f5 x)) (* (- (/ 10.0 56.0)) (f0 x)) (* (/ 96.0 52.0) (f4 x)) (* (/ 11.0 33.0) (f0 x)) (* (/ 64.0 87.0) (f4 x)) (* (- (/ 54.0 32.0)) (f0 x)) (* (- (/ 38.0 92.0)) (f0 x)) (* (/ 61.0 41.0) (f1 x)) (* (- (/ 21.0 83.0)) (f2 x)) (* (- (/ 100.0 89.0)) (f6 x)) (* (/ 83.0 75.0) (f2 x)) (* (- (/ 43.0 30.0)) (f7 x)) (* (- (/ 55.0 38.0)) (f6 x)) (* (- (/ 7.0 7.0)) (f6 x)) (* (- (/ 77.0 100.0)) (f1 x)) (* (- (/ 56.0 37.0)) (f1 x)) (* (/ 96.0 2.0) (f3 x)) (* (- (/ 80.0 100.0)) (f5 x)) (* (- (/ 17.0 88.0)) (f2 x)) (* (/ 68.0 58.0) (f6 x)) (* (- (/ 78.0 98.0)) (f7 x)) (* (- (/ 88.0 21.0)) (f4 x)) (* (/ 5.0 59.0) (f2 x)) (* (- (/ 30.0 68.0)) (f4 x)) (* (- (/ 15.0 9.0)) (f0 x)) (* (- (/ 12.0 42.0)) (f0 x)) (* (- (/ 32.0 97.0)) (f2 x)) (* (- (/ 91.0 46.0)) (f1 x)) (* (/ 11.0 33.0) (f2 x)) (* (- (/ 12.0 9.0)) (f0 x)) (* (- (/ 0.0 55.0)) (f6 x)) (* (- (/ 16.0 24.0)) (f0 x)) (* (/ 0.0 83.0) (f4 x)) (* (/ 51.0 50.0) (f4 x)) (* (/ 59.0 85.0) (f1 x)) (* (- (/ 15.0 47.0)) (f1 x)) (* (- (/ 93.0 51.0)) (f1 x)) (* (- (/ 85.0 24.0)) (f5 x)) (* (- (/ 85.0 99.0)) (f3 x)) (* (/ 91.0 85.0) (f0 x)) (* (- (/ 11.0 35.0)) (f2 x)) (* (/ 78.0 47.0) (f7 x)) (* (/ 75.0 7.0) (f4 x)) (* (/ 55.0 73.0) (f6 x)) (* (/ 0.0 11.0) (f2 x)) (* (/ 1.0 77.0) (f5 x)) (* (/ 4.0 45.0) (f1 x)) (* (- (/ 5.0 18.0)) (f0 x)) (* (- (/ 99.0 15.0)) (f2 x)) (* (/ 96.0 81.0) (f7 x)) (* (/ 99.0 68.0) (f0 x)) (* (- (/ 0.0 13.0)) (f0 x)) (* (- (/ 47.0 62.0)) (f3 x)) (* (- (/ 60.0 21.0)) (f0 x)) (* (/ 42.0 62.0) (f0 x)) (* (/ 71.0 79.0) (f3 x)) (* (- (/ 41.0 97.0)) (f5 x)) (* (/ 93.0 19.0) (f0 x)) (* (/ 15.0 70.0) (f7 x)) (* (- (/ 12.0 60.0)) (f2 x)) (* (- (/ 87.0 85.0)) (f7 x)) (* (- (/ 87.0 90.0)) (f6 x)) (* (/ 24.0 23.0) (f4 x)) (* (/ 0.0 88.0) (f7 x)) (* (- (/ 31.0 86.0)) (f1 x)) (* (- (/ 99.0 47.0)) (f1 x)) (* (/ 74.0 90.0) (f5 x)) (* (- (/ 48.0 83.0)) (f4 x)) (* (- (/ 71.0 70.0)) (f1 x)) (* (/ 79.0 59.0) (f7 x)) (* (/ 95.0 93.0) (f4 x)) (* (/ 4.0 18.0) (f5 x)) (* (/ 31.0 86.0) (f6 x)) (* (- (/ 97.0 82.0)) (f6 x)) (* (- (/ 75.0 50.0)) (f3 x)) (* (/ 58.0 72.0) (f6 x)) (* (- (/ 19.0 38.0)) (f0 x)) (* (/ 59.0 61.0) (f2 x)) (* (- (/ 98.0 28.0)) (f3 x)) (* (- (/ 26.0 67.0)) (f0 x)) (* (- (/ 75.0 75.0)) (f0 x)) (* (- (/ 7.0 84.0)) (f2 x)) (* (/ 8.0 23.0) (f1 x))) (+ (* (/ 14.0 99.0) l1) (* (- (/ 48.0 36.0)) l4) (* (- (/ 11.0 95.0)) l4) (* (/ 70.0 76.0) l7) (* (/ 27.0 63.0) l1) (* (- (/ 75.0 83.0)) l0) (* (/ 81.0 17.0) l5) (* (- (/ 93.0 90.0)) l4) (* (/ 34.0 94.0) l5) (* (/ 26.0 49.0) l7) (* (/ 15.0 42.0) l1) (* (/ 31.0 20.0) l5) (* (- (/ 57.0 100.0)) l6) (* (/ 33.0 99.0) l3) (* (- (/ 56.0 47.0)) l3) (* (- (/ 59.0 10.0)) l1) (* (- (/ 39.0 12.0)) l3) (* (/ 68.0 38.0) l7) (* (/ 40.0 58.0) l4) (* (- (/ 13.0 56.0)) l4) (* (/ 79.0 93.0) l3) (* (- (/ 65.0 47.0)) l2) (* (- (/ 99.0 30.0)) l7) (* (/ 16.0 53.0) l2) (* (/ 28.0 71.0) l2) (* (/ 24.0 25.0) l7) (* (- (/ 86.0 49.0)) l7) (* (- (/ 29.0 95.0)) l5) (* (/ 30.0 64.0) l6) (* (/ 21.0 78.0) l5) (* (/ 58.0 18.0) l0) (* (/ 73.0 38.0) l1) (* (- (/ 16.0 47.0)) l2) (* (- (/ 72.0 29.0)) l7) (* (/ 38.0 75.0) l2) (* (/ 66.0 11.0) l7) (* (/ 42.0 51.0) l5) (* (/ 73.0 30.0) l5) (* (- (/ 27.0 31.0)) l4) (* (/ 88.0 62.0) l6) (* (/ 9.0 86.0) l6) (* (- (/ 47.0 30.0)) l0) (* (/ 55.0 46.0) l6) (* (/ 71.0 75.0) l0) (* (- (/ 48.0 88.0)) l5) (* (- (/ 83.0 97.0)) l5) (* (- (/ 10.0 56.0)) l0) (* (/ 96.0 52.0) l4) (* (/ 11.0 33.0) l0) (* (/ 64.0 87.0) l4) (* (- (/ 54.0 32.0)) l0) (* (- (/ 38.0 92.0)) l0) (* (/ 61.0 41.0) l1) (* (- (/ 21.0 83.0)) l2) (* (- (/ 100.0 89.0)) l6) (* (/ 83.0 75.0) l2) (* (- (/ 43.0 30.0)) l7) (* (- (/ 55.0 38.0)) l6) (* (- (/ 7.0 7.0)) l6) (* (- (/ 77.0 100.0)) l1) (* (- (/ 56.0 37.0)) l1) (* (/ 96.0 2.0) l3) (* (- (/ 80.0 100.0)) l5) (* (- (/ 17.0 88.0)) l2) (* (/ 68.0 58.0) l6) (* (- (/ 78.0 98.0)) l7) (* (- (/ 88.0 21.0)) l4) (* (/ 5.0 59.0) l2) (* (- (/ 30.0 68.0)) l4) (* (- (/ 15.0 9.0)) l0) (* (- (/ 12.0 42.0)) l0) (* (- (/ 32.0 97.0)) l2) (* (- (/ 91.0 46.0)) l1) (* (/ 11.0 33.0) l2) (* (- (/ 12.0 9.0)) l0) (* (- (/ 0.0 55.0)) l6) (* (- (/ 16.0 24.0)) l0) (* (/ 0.0 83.0) l4) (* (/ 51.0 50.0) l4) (* (/ 59.0 85.0) l1) (* (- (/ 15.0 47.0)) l1) (* (- (/ 93.0 51.0)) l1) (* (- (/ 85.0 24.0)) l5) (* (- (/ 85.0 99.0)) l3) (* (/ 91.0 85.0) l0) (* (- (/ 11.0 35.0)) l2) (* (/ 78.0 47.0) l7) (* (/ 75.0 7.0) l4) (* (/ 55.0 73.0) l6) (* (/ 0.0 11.0) l2) (* (/ 1.0 77.0) l5) (* (/ 4.0 45.0) l1) (* (- (/ 5.0 18.0)) l0) (* (- (/ 99.0 15.0)) l2) (* (/ 96.0 81.0) l7) (* (/ 99.0 68.0) l0) (* (- (/ 0.0 13.0)) l0) (* (- (/ 47.0 62.0)) l3) (* (- (/ 60.0 21.0)) l0) (* (/ 42.0 62.0) l0) (* (/ 71.0 79.0) l3) (* (- (/ 41.0 97.0)) l5) (* (/ 93.0 19.0) l0) (* (/ 15.0 70.0) l7) (* (- (/ 12.0 60.0)) l2) (* (- (/ 87.0 85.0)) l7) (* (- (/ 87.0 90.0)) l6) (* (/ 24.0 23.0) l4) (* (/ 0.0 88.0) l7) (* (- (/ 31.0 86.0)) l1) (* (- (/ 99.0 47.0)) l1) (* (/ 74.0 90.0) l5) (* (- (/ 48.0 83.0)) l4) (* (- (/ 71.0 70.0)) l1) (* (/ 79.0 59.0) l7) (* (/ 95.0 93.0) l4) (* (/ 4.0 18.0) l5) (* (/ 31.0 86.0) l6) (* (- (/ 97.0 82.0)) l6) (* (- (/ 75.0 50.0)) l3) (* (/ 58.0 72.0) l6) (* (- (/ 19.0 38.0)) l0) (* (/ 59.0 61.0) l2) (* (- (/ 98.0 28.0)) l3) (* (- (/ 26.0 67.0)) l0) (* (- (/ 75.0 75.0)) l0) (* (- (/ 7.0 84.0)) l2) (* (/ 8.0 23.0) l1))) (- (- (+ (* (/ 14.0 99.0) (f1 x)) (* (- (/ 48.0 36.0)) (f4 x)) (* (- (/ 11.0 95.0)) (f4 x)) (* (/ 70.0 76.0) (f7 x)) (* (/ 27.0 63.0) (f1 x)) (* (- (/ 75.0 83.0)) (f0 x)) (* (/ 81.0 17.0) (f5 x)) (* (- (/ 93.0 90.0)) (f4 x)) (* (/ 34.0 94.0) (f5 x)) (* (/ 26.0 49.0) (f7 x)) (* (/ 15.0 42.0) (f1 x)) (* (/ 31.0 20.0) (f5 x)) (* (- (/ 57.0 100.0)) (f6 x)) (* (/ 33.0 99.0) (f3 x)) (* (- (/ 56.0 47.0)) (f3 x)) (* (- (/ 59.0 10.0)) (f1 x)) (* (- (/ 39.0 12.0)) (f3 x)) (* (/ 68.0 38.0) (f7 x)) (* (/ 40.0 58.0) (f4 x)) (* (- (/ 13.0 56.0)) (f4 x)) (* (/ 79.0 93.0) (f3 x)) (* (- (/ 65.0 47.0)) (f2 x)) (* (- (/ 99.0 30.0)) (f7 x)) (* (/ 16.0 53.0) (f2 x)) (* (/ 28.0 71.0) (f2 x)) (* (/ 24.0 25.0) (f7 x)) (* (- (/ 86.0 49.0)) (f7 x)) (* (- (/ 29.0 95.0)) (f5 x)) (* (/ 30.0 64.0) (f6 x)) (* (/ 21.0 78.0) (f5 x)) (* (/ 58.0 18.0) (f0 x)) (* (/ 73.0 38.0) (f1 x)) (* (- (/ 16.0 47.0)) (f2 x)) (* (- (/ 72.0 29.0)) (f7 x)) (* (/ 38.0 75.0) (f2 x)) (* (/ 66.0 11.0) (f7 x)) (* (/ 42.0 51.0) (f5 x)) (* (/ 73.0 30.0) (f5 x)) (* (- (/ 27.0 31.0)) (f4 x)) (* (/ 88.0 62.0) (f6 x)) (* (/ 9.0 86.0) (f6 x)) (* (- (/ 47.0 30.0)) (f0 x)) (* (/ 55.0 46.0) (f6 x)) (* (/ 71.0 75.0) (f0 x)) (* (- (/ 48.0 88.0)) (f5 x)) (* (- (/ 83.0 97.0)) (f5 x)) (* (- (/ 10.0 56.0)) (f0 x)) (* (/ 96.0 52.0) (f4 x)) (* (/ 11.0 33.0) (f0 x)) (* (/ 64.0 87.0) (f4 x)) (* (- (/ 54.0 32.0)) (f0 x)) (* (- (/ 38.0 92.0)) (f0 x)) (* (/ 61.0 41.0) (f1 x)) (* (- (/ 21.0 83.0)) (f2 x)) (* (- (/ 100.0 89.0)) (f6 x)) (* (/ 83.0 75.0) (f2 x)) (* (- (/ 43.0 30.0)) (f7 x)) (* (- (/ 55.0 38.0)) (f6 x)) (* (- (/ 7.0 7.0)) (f6 x)) (* (- (/ 77.0 100.0)) (f1 x)) (* (- (/ 56.0 37.0)) (f1 x)) (* (/ 96.0 2.0) (f3 x)) (* (- (/ 80.0 100.0)) (f5 x)) (* (- (/ 17.0 88.0)) (f2 x)) (* (/ 68.0 58.0) (f6 x)) (* (- (/ 78.0 98.0)) (f7 x)) (* (- (/ 88.0 21.0)) (f4 x)) (* (/ 5.0 59.0) (f2 x)) (* (- (/ 30.0 68.0)) (f4 x)) (* (- (/ 15.0 9.0)) (f0 x)) (* (- (/ 12.0 42.0)) (f0 x)) (* (- (/ 32.0 97.0)) (f2 x)) (* (- (/ 91.0 46.0)) (f1 x)) (* (/ 11.0 33.0) (f2 x)) (* (- (/ 12.0 9.0)) (f0 x)) (* (- (/ 0.0 55.0)) (f6 x)) (* (- (/ 16.0 24.0)) (f0 x)) (* (/ 0.0 83.0) (f4 x)) (* (/ 51.0 50.0) (f4 x)) (* (/ 59.0 85.0) (f1 x)) (* (- (/ 15.0 47.0)) (f1 x)) (* (- (/ 93.0 51.0)) (f1 x)) (* (- (/ 85.0 24.0)) (f5 x)) (* (- (/ 85.0 99.0)) (f3 x)) (* (/ 91.0 85.0) (f0 x)) (* (- (/ 11.0 35.0)) (f2 x)) (* (/ 78.0 47.0) (f7 x)) (* (/ 75.0 7.0) (f4 x)) (* (/ 55.0 73.0) (f6 x)) (* (/ 0.0 11.0) (f2 x)) (* (/ 1.0 77.0) (f5 x)) (* (/ 4.0 45.0) (f1 x)) (* (- (/ 5.0 18.0)) (f0 x)) (* (- (/ 99.0 15.0)) (f2 x)) (* (/ 96.0 81.0) (f7 x)) (* (/ 99.0 68.0) (f0 x)) (* (- (/ 0.0 13.0)) (f0 x)) (* (- (/ 47.0 62.0)) (f3 x)) (* (- (/ 60.0 21.0)) (f0 x)) (* (/ 42.0 62.0) (f0 x)) (* (/ 71.0 79.0) (f3 x)) (* (- (/ 41.0 97.0)) (f5 x)) (* (/ 93.0 19.0) (f0 x)) (* (/ 15.0 70.0) (f7 x)) (* (- (/ 12.0 60.0)) (f2 x)) (* (- (/ 87.0 85.0)) (f7 x)) (* (- (/ 87.0 90.0)) (f6 x)) (* (/ 24.0 23.0) (f4 x)) (* (/ 0.0 88.0) (f7 x)) (* (- (/ 31.0 86.0)) (f1 x)) (* (- (/ 99.0 47.0)) (f1 x)) (* (/ 74.0 90.0) (f5 x)) (* (- (/ 48.0 83.0)) (f4 x)) (* (- (/ 71.0 70.0)) (f1 x)) (* (/ 79.0 59.0) (f7 x)) (* (/ 95.0 93.0) (f4 x)) (* (/ 4.0 18.0) (f5 x)) (* (/ 31.0 86.0) (f6 x)) (* (- (/ 97.0 82.0)) (f6 x)) (* (- (/ 75.0 50.0)) (f3 x)) (* (/ 58.0 72.0) (f6 x)) (* (- (/ 19.0 38.0)) (f0 x)) (* (/ 59.0 61.0) (f2 x)) (* (- (/ 98.0 28.0)) (f3 x)) (* (- (/ 26.0 67.0)) (f0 x)) (* (- (/ 75.0 75.0)) (f0 x)) (* (- (/ 7.0 84.0)) (f2 x)) (* (/ 8.0 23.0) (f1 x))) (+ (* (/ 14.0 99.0) l1) (* (- (/ 48.0 36.0)) l4) (* (- (/ 11.0 95.0)) l4) (* (/ 70.0 76.0) l7) (* (/ 27.0 63.0) l1) (* (- (/ 75.0 83.0)) l0) (* (/ 81.0 17.0) l5) (* (- (/ 93.0 90.0)) l4) (* (/ 34.0 94.0) l5) (* (/ 26.0 49.0) l7) (* (/ 15.0 42.0) l1) (* (/ 31.0 20.0) l5) (* (- (/ 57.0 100.0)) l6) (* (/ 33.0 99.0) l3) (* (- (/ 56.0 47.0)) l3) (* (- (/ 59.0 10.0)) l1) (* (- (/ 39.0 12.0)) l3) (* (/ 68.0 38.0) l7) (* (/ 40.0 58.0) l4) (* (- (/ 13.0 56.0)) l4) (* (/ 79.0 93.0) l3) (* (- (/ 65.0 47.0)) l2) (* (- (/ 99.0 30.0)) l7) (* (/ 16.0 53.0) l2) (* (/ 28.0 71.0) l2) (* (/ 24.0 25.0) l7) (* (- (/ 86.0 49.0)) l7) (* (- (/ 29.0 95.0)) l5) (* (/ 30.0 64.0) l6) (* (/ 21.0 78.0) l5) (* (/ 58.0 18.0) l0) (* (/ 73.0 38.0) l1) (* (- (/ 16.0 47.0)) l2) (* (- (/ 72.0 29.0)) l7) (* (/ 38.0 75.0) l2) (* (/ 66.0 11.0) l7) (* (/ 42.0 51.0) l5) (* (/ 73.0 30.0) l5) (* (- (/ 27.0 31.0)) l4) (* (/ 88.0 62.0) l6) (* (/ 9.0 86.0) l6) (* (- (/ 47.0 30.0)) l0) (* (/ 55.0 46.0) l6) (* (/ 71.0 75.0) l0) (* (- (/ 48.0 88.0)) l5) (* (- (/ 83.0 97.0)) l5) (* (- (/ 10.0 56.0)) l0) (* (/ 96.0 52.0) l4) (* (/ 11.0 33.0) l0) (* (/ 64.0 87.0) l4) (* (- (/ 54.0 32.0)) l0) (* (- (/ 38.0 92.0)) l0) (* (/ 61.0 41.0) l1) (* (- (/ 21.0 83.0)) l2) (* (- (/ 100.0 89.0)) l6) (* (/ 83.0 75.0) l2) (* (- (/ 43.0 30.0)) l7) (* (- (/ 55.0 38.0)) l6) (* (- (/ 7.0 7.0)) l6) (* (- (/ 77.0 100.0)) l1) (* (- (/ 56.0 37.0)) l1) (* (/ 96.0 2.0) l3) (* (- (/ 80.0 100.0)) l5) (* (- (/ 17.0 88.0)) l2) (* (/ 68.0 58.0) l6) (* (- (/ 78.0 98.0)) l7) (* (- (/ 88.0 21.0)) l4) (* (/ 5.0 59.0) l2) (* (- (/ 30.0 68.0)) l4) (* (- (/ 15.0 9.0)) l0) (* (- (/ 12.0 42.0)) l0) (* (- (/ 32.0 97.0)) l2) (* (- (/ 91.0 46.0)) l1) (* (/ 11.0 33.0) l2) (* (- (/ 12.0 9.0)) l0) (* (- (/ 0.0 55.0)) l6) (* (- (/ 16.0 24.0)) l0) (* (/ 0.0 83.0) l4) (* (/ 51.0 50.0) l4) (* (/ 59.0 85.0) l1) (* (- (/ 15.0 47.0)) l1) (* (- (/ 93.0 51.0)) l1) (* (- (/ 85.0 24.0)) l5) (* (- (/ 85.0 99.0)) l3) (* (/ 91.0 85.0) l0) (* (- (/ 11.0 35.0)) l2) (* (/ 78.0 47.0) l7) (* (/ 75.0 7.0) l4) (* (/ 55.0 73.0) l6) (* (/ 0.0 11.0) l2) (* (/ 1.0 77.0) l5) (* (/ 4.0 45.0) l1) (* (- (/ 5.0 18.0)) l0) (* (- (/ 99.0 15.0)) l2) (* (/ 96.0 81.0) l7) (* (/ 99.0 68.0) l0) (* (- (/ 0.0 13.0)) l0) (* (- (/ 47.0 62.0)) l3) (* (- (/ 60.0 21.0)) l0) (* (/ 42.0 62.0) l0) (* (/ 71.0 79.0) l3) (* (- (/ 41.0 97.0)) l5) (* (/ 93.0 19.0) l0) (* (/ 15.0 70.0) l7) (* (- (/ 12.0 60.0)) l2) (* (- (/ 87.0 85.0)) l7) (* (- (/ 87.0 90.0)) l6) (* (/ 24.0 23.0) l4) (* (/ 0.0 88.0) l7) (* (- (/ 31.0 86.0)) l1) (* (- (/ 99.0 47.0)) l1) (* (/ 74.0 90.0) l5) (* (- (/ 48.0 83.0)) l4) (* (- (/ 71.0 70.0)) l1) (* (/ 79.0 59.0) l7) (* (/ 95.0 93.0) l4) (* (/ 4.0 18.0) l5) (* (/ 31.0 86.0) l6) (* (- (/ 97.0 82.0)) l6) (* (- (/ 75.0 50.0)) l3) (* (/ 58.0 72.0) l6) (* (- (/ 19.0 38.0)) l0) (* (/ 59.0 61.0) l2) (* (- (/ 98.0 28.0)) l3) (* (- (/ 26.0 67.0)) l0) (* (- (/ 75.0 75.0)) l0) (* (- (/ 7.0 84.0)) l2) (* (/ 8.0 23.0) l1))))) epsilon)
                 ))
               ))
             ))))

(check-sat)

